c FILE: i080-241

c SOURCE: From steinlib

c DESCRIPTION: Steinlib instance with 80 nodes and 632 edges.

p edge 80 632
e 1 3
e 1 6
e 1 9
e 1 10
e 1 13
e 1 30
e 1 41
e 1 42
e 1 45
e 1 50
e 1 54
e 1 56
e 1 57
e 1 59
e 1 62
e 1 66
e 1 70
e 1 76
e 1 78
e 2 4
e 2 5
e 2 15
e 2 29
e 2 31
e 2 33
e 2 35
e 2 38
e 2 39
e 2 44
e 2 46
e 2 49
e 2 63
e 2 66
e 2 71
e 2 80
e 3 9
e 3 10
e 3 11
e 3 12
e 3 16
e 3 21
e 3 23
e 3 32
e 3 50
e 3 64
e 3 65
e 3 67
e 3 72
e 3 80
e 4 7
e 4 13
e 4 16
e 4 23
e 4 25
e 4 29
e 4 43
e 4 47
e 4 49
e 4 58
e 4 67
e 4 72
e 5 7
e 5 10
e 5 29
e 5 30
e 5 31
e 5 35
e 5 38
e 5 44
e 5 61
e 5 64
e 5 68
e 5 72
e 5 74
e 5 79
e 6 13
e 6 20
e 6 21
e 6 23
e 6 25
e 6 28
e 6 29
e 6 34
e 6 37
e 6 38
e 6 41
e 6 42
e 6 43
e 6 47
e 6 48
e 6 57
e 6 77
e 6 79
e 7 16
e 7 28
e 7 43
e 7 44
e 7 47
e 7 50
e 7 52
e 7 57
e 7 61
e 7 67
e 7 74
e 8 13
e 8 14
e 8 20
e 8 34
e 8 37
e 8 38
e 8 41
e 8 43
e 8 44
e 8 46
e 8 49
e 8 62
e 8 63
e 8 70
e 9 13
e 9 21
e 9 24
e 9 25
e 9 26
e 9 27
e 9 28
e 9 29
e 9 40
e 9 41
e 9 49
e 9 55
e 9 62
e 9 70
e 9 76
e 9 78
e 9 80
e 10 14
e 10 19
e 10 22
e 10 25
e 10 39
e 10 40
e 10 49
e 10 50
e 10 51
e 10 53
e 10 59
e 10 71
e 10 73
e 10 74
e 10 77
e 11 18
e 11 28
e 11 31
e 11 34
e 11 39
e 11 43
e 11 44
e 11 50
e 11 51
e 11 57
e 11 69
e 11 73
e 11 74
e 12 13
e 12 16
e 12 20
e 12 28
e 12 33
e 12 34
e 12 35
e 12 36
e 12 41
e 12 43
e 12 49
e 12 56
e 12 61
e 12 62
e 12 65
e 12 68
e 12 71
e 12 76
e 13 14
e 13 20
e 13 23
e 13 24
e 13 25
e 13 30
e 13 46
e 13 52
e 13 54
e 13 58
e 13 64
e 13 65
e 13 69
e 13 70
e 13 74
e 13 78
e 14 18
e 14 19
e 14 24
e 14 32
e 14 52
e 14 56
e 14 66
e 14 70
e 14 71
e 14 73
e 14 76
e 14 77
e 14 79
e 15 16
e 15 21
e 15 23
e 15 31
e 15 36
e 15 38
e 15 39
e 15 41
e 15 51
e 15 57
e 15 63
e 15 67
e 15 69
e 15 70
e 15 72
e 15 74
e 15 76
e 15 78
e 15 79
e 16 18
e 16 19
e 16 28
e 16 32
e 16 33
e 16 37
e 16 39
e 16 46
e 16 52
e 16 56
e 16 58
e 16 59
e 16 75
e 16 79
e 17 18
e 17 22
e 17 25
e 17 26
e 17 28
e 17 29
e 17 36
e 17 40
e 17 43
e 17 48
e 17 55
e 17 58
e 17 61
e 17 64
e 17 65
e 17 66
e 17 67
e 17 75
e 18 19
e 18 25
e 18 27
e 18 32
e 18 36
e 18 43
e 18 45
e 18 66
e 18 67
e 18 75
e 18 77
e 18 79
e 19 21
e 19 22
e 19 24
e 19 28
e 19 31
e 19 39
e 19 42
e 19 50
e 19 53
e 19 57
e 19 58
e 19 61
e 19 67
e 20 26
e 20 28
e 20 29
e 20 30
e 20 34
e 20 40
e 20 42
e 20 47
e 20 48
e 20 51
e 20 63
e 20 77
e 21 23
e 21 24
e 21 25
e 21 27
e 21 33
e 21 40
e 21 48
e 21 49
e 21 51
e 21 54
e 21 55
e 21 60
e 21 66
e 21 69
e 21 71
e 21 74
e 22 27
e 22 34
e 22 35
e 22 38
e 22 48
e 22 58
e 22 60
e 22 62
e 22 72
e 22 77
e 23 30
e 23 36
e 23 37
e 23 38
e 23 40
e 23 49
e 23 50
e 23 52
e 23 54
e 23 58
e 23 61
e 23 62
e 23 63
e 23 72
e 23 73
e 23 76
e 24 31
e 24 34
e 24 45
e 24 47
e 24 57
e 24 66
e 24 79
e 25 26
e 25 29
e 25 32
e 25 34
e 25 35
e 25 37
e 25 53
e 25 54
e 25 60
e 25 61
e 25 73
e 26 38
e 26 43
e 26 45
e 26 47
e 26 49
e 26 69
e 27 30
e 27 34
e 27 35
e 27 38
e 27 43
e 27 48
e 27 59
e 27 66
e 27 75
e 27 79
e 27 80
e 28 35
e 28 38
e 28 40
e 28 44
e 28 47
e 28 49
e 28 59
e 28 66
e 28 67
e 28 69
e 28 74
e 29 30
e 29 33
e 29 34
e 29 36
e 29 39
e 29 41
e 29 43
e 29 49
e 29 52
e 29 60
e 29 63
e 29 67
e 30 34
e 30 35
e 30 39
e 30 43
e 30 47
e 30 51
e 30 54
e 30 55
e 30 61
e 30 67
e 30 68
e 30 72
e 30 78
e 31 41
e 31 42
e 31 44
e 31 47
e 31 63
e 31 68
e 31 69
e 31 74
e 31 75
e 31 76
e 32 46
e 32 47
e 32 54
e 32 55
e 32 62
e 32 69
e 32 77
e 32 79
e 33 40
e 33 43
e 33 76
e 33 77
e 34 38
e 34 43
e 34 56
e 34 71
e 34 73
e 34 74
e 35 36
e 35 38
e 35 39
e 35 41
e 35 42
e 35 45
e 35 66
e 35 71
e 35 78
e 36 40
e 36 41
e 36 43
e 36 45
e 36 48
e 36 57
e 36 59
e 36 60
e 36 63
e 36 64
e 36 70
e 36 72
e 36 75
e 37 40
e 37 46
e 37 50
e 37 51
e 37 54
e 37 55
e 37 59
e 37 63
e 37 69
e 37 70
e 38 42
e 38 51
e 38 61
e 38 66
e 38 68
e 38 74
e 38 77
e 39 57
e 39 58
e 39 62
e 39 66
e 39 69
e 39 73
e 39 74
e 39 79
e 40 45
e 40 47
e 40 64
e 40 73
e 40 77
e 40 80
e 41 49
e 41 57
e 41 62
e 41 68
e 41 76
e 42 43
e 42 48
e 42 58
e 42 64
e 42 70
e 42 75
e 43 47
e 43 49
e 43 51
e 43 72
e 43 76
e 44 45
e 44 49
e 44 57
e 44 58
e 44 62
e 44 72
e 44 75
e 44 78
e 44 80
e 45 49
e 45 50
e 45 53
e 45 54
e 45 55
e 45 57
e 46 49
e 46 59
e 46 62
e 46 70
e 46 71
e 46 80
e 47 54
e 47 62
e 47 63
e 47 65
e 47 73
e 47 74
e 47 77
e 48 51
e 48 52
e 48 53
e 48 57
e 48 67
e 48 68
e 48 70
e 48 76
e 49 53
e 49 59
e 49 61
e 49 66
e 49 75
e 49 76
e 49 78
e 50 53
e 50 54
e 50 59
e 50 75
e 51 52
e 51 53
e 51 60
e 51 76
e 52 53
e 52 61
e 52 69
e 52 73
e 52 75
e 53 64
e 54 56
e 54 59
e 54 72
e 54 78
e 55 69
e 55 72
e 55 74
e 55 76
e 56 61
e 56 62
e 56 69
e 56 70
e 56 80
e 57 58
e 57 63
e 57 66
e 57 71
e 57 80
e 58 65
e 58 66
e 58 68
e 58 74
e 59 66
e 59 70
e 60 67
e 60 68
e 60 74
e 60 77
e 61 62
e 61 64
e 61 66
e 61 70
e 61 72
e 61 80
e 62 69
e 62 73
e 62 75
e 62 80
e 63 65
e 63 74
e 63 79
e 63 80
e 64 68
e 64 74
e 64 78
e 65 71
e 65 72
e 66 71
e 67 68
e 67 74
e 67 76
e 67 78
e 68 71
e 68 72
e 69 80
e 70 73
e 71 73
e 71 74
e 71 78
e 72 73
e 72 75
e 72 76
e 73 75
e 74 79
e 75 77
e 77 80
e 79 80
